instances/p2/p2_6_20-0.dzn
Alphabet = {A,C,G,T};
ns = 6;
nc = 12;
neighbours = [| I(G),I(T),I(C),I(A),I(A),I(C),I(T),I(G),I(A),I(T),I(C),I(G) | I(G),I(G),I(C),I(G),I(G),I(A),I(C),I(A),I(G),I(G),I(A),Null | I(A),I(C),I(C),I(G),I(C),I(C),Null,Null,Null,Null,Null,Null | I(C),I(C),Null,Null,Null,Null,Null,Null,Null,Null,Null,Null | I(T),I(T),I(C),I(G),I(T),I(A),I(C),I(T),Null,Null,Null,Null | I(C),I(C),Null,Null,Null,Null,Null,Null,Null,Null,Null,Null |];
