instances/p2/p2_6_20-0.txt
{
	"num_strings": 6,
	"alphabet": "ACGT",
	"strings": [
		"GTCAACTGATCG",
		"GGCGGACAGGA",
		"ACCGCC",
		"CC",
		"TTCGTACT",
		"CC"
	],
	"str_length":[12,11,6,2,8,2]
}